letting n =  10
letting blocks =  [[1, 1], [2, 1], [2, 2], [2, 6], [2, 8], [3, 7], [3, 9], [4, 1], [4, 3], [4, 4], [5, 1], [5, 2], [5, 6], [6, 1], [6, 2], [6, 5], [6, 8], [7, 6], [7, 7], [7, 9], [9, 4], [9, 7], [9, 9], [10, 5]]
